p tw 312 349
1 2
2 113
3 14
4 5
4 19
5 6
6 7
7 8
7 19
8 9
9 10
10 11
11 12
11 19
12 13
13 15
14 25
15 16
16 17
17 18
18 282
19 20
20 21
21 22
21 27
22 23
23 24
24 26
25 36
26 282
27 28
28 29
29 30
29 33
30 31
31 32
32 282
33 34
34 35
35 37
35 42
36 47
37 38
37 42
38 39
39 40
40 41
41 282
42 43
43 44
43 64
44 45
45 46
46 48
46 64
47 58
48 49
49 50
50 51
51 52
51 56
52 53
53 54
54 55
55 56
56 57
57 59
58 69
59 60
60 61
61 62
62 63
63 282
64 65
65 66
66 67
67 68
68 70
69 80
70 71
71 72
72 73
73 74
74 75
75 282
76 77
77 78
78 79
78 166
79 81
80 91
81 82
82 83
83 84
84 85
85 86
86 87
86 166
87 88
88 89
88 166
89 90
90 92
91 102
92 93
93 94
94 95
94 104
95 96
96 97
96 124
97 98
98 99
99 100
99 153
100 101
101 103
101 133
102 114
103 162
104 105
105 106
106 107
107 108
108 109
109 110
110 111
111 112
112 115
113 224
114 125
115 116
116 117
117 118
117 121
118 119
119 120
120 121
121 122
122 123
123 84
124 126
125 136
126 127
127 128
127 130
128 129
129 130
130 131
131 132
132 84
133 134
134 135
135 137
136 147
137 138
138 139
139 140
140 141
141 142
142 143
143 144
144 145
145 146
145 150
146 148
147 158
148 149
149 150
150 151
151 152
152 84
153 154
154 155
155 156
155 159
156 157
157 159
158 169
159 160
160 161
161 84
162 163
163 164
164 165
165 84
166 167
167 168
168 170
168 174
169 180
170 171
171 172
172 173
173 229
174 175
175 176
176 177
176 183
177 178
178 179
179 181
180 191
181 182
182 229
183 184
184 185
185 186
185 192
186 187
187 188
188 189
189 190
190 229
191 202
192 193
193 194
194 195
194 211
195 196
195 199
196 197
197 198
198 229
199 200
200 201
200 205
201 203
202 213
203 204
204 229
205 206
206 207
207 208
208 209
209 210
210 229
211 212
212 214
213 225
214 215
214 229
215 216
216 217
217 218
218 219
219 220
220 221
221 222
222 223
223 226
224 247
225 236
226 227
227 228
228 229
228 218
229 230
230 231
231 232
232 256
233 234
234 235
235 237
236 239
237 238
239 240
240 241
241 242
242 243
243 244
244 245
245 246
246 248
247 258
248 249
249 250
250 251
251 252
252 253
253 254
254 255
255 256
256 257
257 259
258 269
259 260
260 261
261 262
262 263
263 264
264 265
265 266
265 267
266 237
267 268
268 270
269 280
269 3
270 271
271 272
272 273
272 276
273 274
274 275
275 278
276 277
277 278
278 279
279 281
279 76
280 291
281 282
282 283
283 284
284 285
284 166
285 286
286 287
287 288
287 290
288 289
289 297
290 292
291 302
291 264
292 293
292 295
293 294
294 297
295 296
296 297
297 298
298 299
299 300
300 301
300 307
301 303
302 233
303 304
304 305
305 306
306 307
307 308
308 309
309 310
310 311
311 312
312 4
